\ This file has been generated by DOcplex
\ ENCODING=ISO-8859-1
\Problem name: random_problem.lp

Minimize
 obj: 402 x0 + 201 x1 + 110 x2 + 55 x3 + 230 x4 + 115 x5 + 1846 x6 + 923 x7 + [
      6272 x0^2 + 6272 x0*x1 + 1952 x0*x2 + 976 x0*x3 + 160 x0*x4 + 80 x0*x5
      + 992 x0*x6 + 496 x0*x7 + 1568 x1^2 + 976 x1*x2 + 488 x1*x3 + 80 x1*x4
      + 40 x1*x5 + 496 x1*x6 + 248 x1*x7 + 6224 x2^2 + 6224 x2*x3 + 2240 x2*x4
      + 1120 x2*x5 - 768 x2*x6 - 384 x2*x7 + 1556 x3^2 + 1120 x3*x4 + 560 x3*x5
      - 384 x3*x6 - 192 x3*x7 + 2496 x4^2 + 2496 x4*x5 + 3456 x4*x6 + 1728 x4*x7
      + 624 x5^2 + 1728 x5*x6 + 864 x5*x7 + 5904 x6^2 + 5904 x6*x7 + 1476 x7^2
      ]/2
Subject To
 c0: 2 x0 + x1 + 2 x2 + x3 + 2 x4 + x5 + 2 x6 + x7 = 3

Bounds
 0 <= x0 <= 1
 0 <= x1 <= 1
 0 <= x2 <= 1
 0 <= x3 <= 1
 0 <= x4 <= 1
 0 <= x5 <= 1
 0 <= x6 <= 1
 0 <= x7 <= 1

Binaries
 x0 x1 x2 x3 x4 x5 x6 x7
End
